p wcnf 142 284 285 
1 14 79 0 
1 -23 124 0 
1 80 -104 0 
1 55 84 0 
1 -62 -131 0 
1 -22 25 0 
1 -138 -61 0 
1 -141 -64 0 
1 -63 -27 0 
1 68 34 0 
1 -45 -34 0 
1 -35 50 0 
1 -105 45 0 
1 123 -124 0 
1 -81 -59 0 
1 117 -138 0 
1 40 -106 0 
1 125 23 0 
1 -9 -92 0 
1 -130 -85 0 
1 -137 -109 0 
1 -54 -44 0 
1 -74 37 0 
1 27 -105 0 
1 81 -92 0 
1 -59 16 0 
1 -38 -125 0 
1 -98 89 0 
1 38 66 0 
1 58 -106 0 
1 106 -48 0 
1 84 4 0 
1 100 -2 0 
1 -45 23 0 
1 41 49 0 
1 -66 47 0 
1 -34 83 0 
1 -27 -80 0 
1 52 75 0 
1 92 -16 0 
1 124 80 0 
1 -124 12 0 
1 -20 -25 0 
1 -118 -138 0 
1 -140 -8 0 
1 -36 66 0 
1 -104 25 0 
1 -126 65 0 
1 -7 114 0 
1 -94 23 0 
1 130 -70 0 
1 131 -122 0 
1 -36 61 0 
1 29 115 0 
1 -134 -92 0 
1 -132 45 0 
1 111 63 0 
1 -6 -123 0 
1 35 119 0 
1 136 -69 0 
1 -63 22 0 
1 27 -47 0 
1 -100 -81 0 
1 28 -55 0 
1 -121 -93 0 
1 -114 34 0 
1 -132 -33 0 
1 -118 126 0 
1 -114 -133 0 
1 8 -61 0 
1 -32 47 0 
1 -44 -84 0 
1 11 18 0 
1 -52 -20 0 
1 -96 -132 0 
1 -112 42 0 
1 31 -12 0 
1 74 -49 0 
1 69 103 0 
1 -16 117 0 
1 -108 29 0 
1 60 80 0 
1 -126 -115 0 
1 -110 -62 0 
1 35 26 0 
1 -76 -78 0 
1 -9 27 0 
1 127 -35 0 
1 29 95 0 
1 90 -113 0 
1 72 19 0 
1 -59 -83 0 
1 49 81 0 
1 -141 -111 0 
1 108 -102 0 
1 -97 18 0 
1 132 -104 0 
1 -50 32 0 
1 141 -73 0 
1 75 129 0 
1 27 139 0 
1 -45 -6 0 
1 78 32 0 
1 132 92 0 
1 -110 -53 0 
1 130 8 0 
1 -142 -79 0 
1 26 -58 0 
1 42 -109 0 
1 -127 -27 0 
1 -38 59 0 
1 31 -25 0 
1 -29 12 0 
1 102 -78 0 
1 111 -78 0 
1 63 7 0 
1 -15 -115 0 
1 16 121 0 
1 3 -11 0 
1 -106 68 0 
1 58 -56 0 
1 92 20 0 
1 -7 -126 0 
1 113 30 0 
1 -49 10 0 
1 113 -9 0 
1 -122 54 0 
1 110 -75 0 
1 12 -17 0 
1 45 69 0 
1 76 133 0 
1 -96 -56 0 
1 22 85 0 
1 11 -69 0 
1 46 -74 0 
1 -28 126 0 
1 82 -45 0 
1 133 -22 0 
1 -100 -20 0 
1 -100 -25 0 
1 4 136 0 
1 -61 71 0 
1 3 -35 0 
1 109 -37 0 
1 82 -135 0 
1 -140 6 0 
1 40 105 0 
1 91 105 0 
1 63 -104 0 
1 -97 49 0 
1 -35 -52 0 
1 -55 8 0 
1 -121 33 0 
1 6 21 0 
1 82 -49 0 
1 -14 -100 0 
1 -80 50 0 
1 86 -107 0 
1 -104 88 0 
1 34 -18 0 
1 -24 55 0 
1 -68 37 0 
1 83 125 0 
1 13 -33 0 
1 -96 -131 0 
1 -134 92 0 
1 46 -81 0 
1 -113 -110 0 
1 98 123 0 
1 -61 23 0 
1 89 -121 0 
1 33 51 0 
1 -130 -52 0 
1 37 -16 0 
1 75 -81 0 
1 -74 27 0 
1 87 -20 0 
1 -93 -1 0 
1 -72 -66 0 
1 -28 45 0 
1 -132 45 0 
1 -69 -81 0 
1 32 104 0 
1 10 -49 0 
1 127 -114 0 
1 13 -27 0 
1 -80 65 0 
1 -111 -26 0 
1 113 57 0 
1 -28 42 0 
1 -64 15 0 
1 -134 124 0 
1 60 139 0 
1 50 -42 0 
1 133 97 0 
1 44 -47 0 
1 -53 -111 0 
1 -24 129 0 
1 -97 44 0 
1 -2 -118 0 
1 10 -125 0 
1 -41 -103 0 
1 18 28 0 
1 -17 -32 0 
1 124 61 0 
1 -142 113 0 
1 -84 52 0 
1 -60 125 0 
1 -141 41 0 
1 12 -38 0 
1 -133 -23 0 
1 -80 -14 0 
1 95 12 0 
1 79 130 0 
1 101 -79 0 
1 27 108 0 
1 -98 -26 0 
1 -110 141 0 
1 -52 92 0 
1 -34 -60 0 
1 117 50 0 
1 -121 140 0 
1 132 -48 0 
1 48 -83 0 
1 32 60 0 
1 116 -87 0 
1 40 -13 0 
1 84 -104 0 
1 -104 133 0 
1 74 59 0 
1 116 -31 0 
1 -139 104 0 
1 137 95 0 
1 139 -89 0 
1 -81 75 0 
1 -100 -93 0 
1 -101 -60 0 
1 -75 -63 0 
1 -142 79 0 
1 8 113 0 
1 40 -111 0 
1 40 134 0 
1 -74 -113 0 
1 -30 -21 0 
1 3 34 0 
1 60 130 0 
1 17 -73 0 
1 9 -108 0 
1 -82 138 0 
1 55 138 0 
1 -79 114 0 
1 -26 -48 0 
1 92 88 0 
1 36 -40 0 
1 -98 114 0 
1 61 -80 0 
1 130 -79 0 
1 -138 -20 0 
1 -62 65 0 
1 89 -101 0 
1 -91 28 0 
1 125 59 0 
1 -37 9 0 
1 141 37 0 
1 -27 -77 0 
1 77 89 0 
1 -39 -120 0 
1 19 3 0 
1 116 -70 0 
1 -10 17 0 
1 8 -27 0 
1 91 88 0 
1 129 14 0 
1 -66 -37 0 
1 -60 -104 0 
1 -122 -13 0 
1 20 1 0 
1 -1 112 0 
1 -127 -38 0 
1 -128 66 0 
1 -88 -16 0 
1 -97 -103 0 
1 55 -15 0 
1 116 138 0 
